20	5
0	10	7	8	4	9	3	6	10	5	2	1
1	3	14	18	20
2	1	15
3	3	16	20	19
4	1	16
5	3	15	13	16
6	3	14	12	16
7	3	20	19	18
8	3	14	16	20
9	3	14	18	11
10	2	17	15
11	1	13
12	1	21
13	2	19	12
14	1	19
15	3	20	18	14
16	1	18
17	2	18	11
18	1	21
19	1	21
20	1	21
21	0
0	0	0	0	0	0	0
1	5	3	5	5	3	5
2	9	0	0	4	0	0
3	9	1	0	0	2	3
4	4	4	2	5	0	0
5	1	1	3	2	3	3
6	3	0	5	1	1	2
7	4	3	1	5	3	5
8	1	5	4	3	5	4
9	4	3	3	0	0	2
10	5	2	3	5	2	0
11	2	1	3	5	5	0
12	7	0	0	1	3	5
13	3	1	4	3	0	2
14	4	3	0	3	5	0
15	6	3	0	3	1	4
16	6	5	5	5	0	1
17	9	4	5	0	4	0
18	6	4	2	4	4	2
19	3	0	1	4	2	0
20	7	5	4	1	0	5
21	0	0	0	0	0	0
5	5	5	5	5
